1,0
2,0
3,1
4,1
5,1
6,0
7,1
8,1
9,1
10,1
11,0
12,1
13,1
14,1
15,1
16,1
17,0
18,1
19,1
20,1
21,1
22,1
23,1
24,1
25,1
26,1
27,1
28,1
29,1
30,1
31,1
32,1
33,0
34,1
35,1
36,1
37,1
38,1
39,1
40,0
41,1
42,1
43,1
44,1
45,1
46,0
47,0
48,0
49,0
50,1
51,1
52,0
53,1
54,0
55,0
56,0
57,0
58,0
59,0
60,0
61,1
62,0
63,0
64,0
65,0
66,1
67,1
68,0
69,0
70,0
71,1
72,1
73,1
74,1
75,0
76,1
77,0
78,1
79,0
80,1
81,1
82,1
83,1
84,1
85,0
86,1
87,0
88,1
89,1
90,0
91,1
92,0
93,0
94,1
95,0
96,1
97,0
98,1
99,0
100,1
101,1
102,1
103,0
104,0
105,1
106,1
107,1
108,1
109,1
110,1
111,1
112,0
113,1
114,1
115,1
116,1
117,1
118,1
119,1
120,1
121,1
122,0
123,1
124,1
125,0
126,0
127,0
128,0
129,0
130,0
131,1
132,1
133,0
134,0
135,0
136,1
137,0
138,0
139,1
140,1
141,1
142,1
143,0
144,1
145,1
146,1
147,0
148,0
149,1
150,0
151,0
152,0
153,0
154,0
155,1
156,1
157,1
158,1
159,0
160,0
161,0
162,0
163,0
164,1
165,1
166,1
167,1
168,1
169,0
170,0
171,0
172,0
173,0
174,0
175,1
176,1
177,0
178,0
179,0
180,1
181,1
182,0
183,1
184,1
185,0
186,0
187,0
188,0
189,1
190,1
191,1
192,0
193,1
194,0
195,0
196,0
197,1
198,1
199,0
200,0
201,1
202,1
203,1
204,1
205,1
206,0
207,0
208,1
209,1
210,1
211,0
212,1
213,1
214,0
215,0
216,0
217,1
218,0
219,0
220,0
221,0
222,0
223,0
224,1
225,1
226,1
227,1
228,0
229,0
230,1
231,1
232,0
233,1
234,1
235,0
236,1
237,0
238,0
239,1
240,0
241,1
242,1
243,1
244,1
245,1
246,0
247,1
248,1
249,0
250,1
251,0
252,1
253,0
254,0
255,0
256,1
257,1
258,0
259,1
260,1
261,1
262,1
263,1
264,1
265,1
266,0
267,0
268,0
269,1
270,0
271,0
272,1
273,1
274,1
275,0
276,1
277,1
278,1
279,1
280,1
281,1
282,1
283,0
284,1
285,1
286,1
287,1
288,1
289,1
290,1
291,1
292,1
293,1
294,1
295,1
296,1
297,1
298,1
299,1
300,1
301,1
302,1
303,1
304,1
305,1
306,1
307,1
308,1
309,1
310,1
311,1
312,1
313,0
314,1
315,0
316,1
317,1
318,0
319,0
320,0
321,0
322,0
323,0
324,1
325,0
326,0
327,0
328,0
329,1
330,1
331,1
332,0
333,1
334,0
335,0
336,0
337,1
338,0
339,0
340,0
341,1
342,1
343,1
344,1
345,1
346,1
347,0
348,0
349,0
350,1
351,0
352,1
353,0
354,1
355,1
356,1
357,0
358,0
359,0
360,1
361,1
362,1
363,1
364,1
365,1
366,1
367,1
368,1
369,1
370,1
371,1
372,1
373,1
374,1
375,1
376,1
377,0
378,0
379,0
380,1
381,1
382,1
383,1
384,1
385,1
386,1
387,1
388,1
389,1
390,1
391,1
392,1
393,1
394,1
395,1
396,1
397,1
398,0
399,1
400,1
401,0
402,0
403,1
404,0
405,1
406,1
407,0
408,0
409,0
410,1
411,1
412,1
413,1
414,1
415,1
416,1
417,1
418,1
419,1
420,1
421,1
422,1
423,1
424,1
425,0
426,1
427,1
428,1
429,1
430,1
431,1
432,1
433,1
434,1
435,1
436,1
437,1
438,1
439,1
440,1
441,1
442,1
443,1
444,1
445,0
446,1
447,1
448,1
449,1
450,1
451,1
452,0
453,1
454,0
455,0
456,1
457,1
458,1
459,1
460,1
461,1
462,1
463,1
464,1
465,1
466,1
467,1
468,0
469,1
470,0
471,1
474,1
475,1
480,1
481,1
482,1
483,1
484,1
485,1
486,1
487,1
488,1
489,1
490,1
491,1
492,1
493,1
494,1
495,1
496,1
497,1
498,1
499,1
500,1
501,1
502,1
503,1
504,0
505,1
506,1
507,1
508,1
509,1
510,1
511,1
512,1
513,1
514,1
515,1
516,1
517,1
518,1
519,1
520,1
521,1
522,1
523,1
524,1
525,1
526,1
527,1
528,1
529,1
530,1
531,1
532,1
533,1
534,1
535,1
536,1
537,1
538,1
539,1
540,1
541,1
542,1
543,1
544,1
545,1
546,1
547,1
548,1
549,1
550,1
551,1
552,1
553,1
554,1
555,1
556,1
557,1
558,0
559,1
560,1
561,1
562,1
563,1
564,1
565,1
566,1
567,1
568,1
569,1
570,1
571,1
572,1
573,1
574,1
575,1
576,1
577,1
578,1
579,1
580,1
581,1
582,1
583,1
584,1
585,1
586,1
587,1
588,1
589,1
590,1
591,1
592,1
593,0
594,0
595,0
596,1
597,1
598,1
599,1
600,1
601,0
602,1
603,1
604,1
605,1
606,1
607,1
608,1
609,1
610,1
611,1
612,1
613,1
614,1
615,1
616,1
617,1
618,1
619,1
620,1
621,1
622,1
623,1
624,1
625,1
626,1
627,1
628,1
629,1
630,1
631,1
632,1
633,1
634,1
635,1
636,1
637,1
638,1
639,1
640,1
641,1
642,1
643,1
644,1
645,1
646,1
647,1
648,0
649,1
650,1
651,1
652,1
653,1
654,1
655,1
656,1
657,1
658,1
659,1
660,1
661,1
662,1
663,1
664,1
665,1
666,1
667,1
668,1
669,1
670,1
671,1
672,1
673,1
674,1
675,1
676,1
677,1
678,1
679,1
680,1
681,1
682,1
683,1
684,1
685,1
686,1
687,1
688,1
689,1
690,1
691,1
692,1
693,1
694,1
695,1
696,1
697,1
698,1
699,1
700,1
701,1
702,1
703,1
704,1
705,1
706,1
707,1
708,1
709,1
710,1
711,1
712,0
713,1
714,1
715,1
716,1
717,1
718,1
719,1
720,1
721,1
722,1
723,1
724,1
725,1
726,1
727,1
728,1
729,0
730,1
731,1
732,1
733,1
734,1
735,1
736,1
737,1
738,1
739,1
740,1
741,1
742,1
743,1
744,1
745,1
746,1
747,1
748,1
749,1
750,1
